n_res = 3;
rc = [ 4, 3, 4 ];
n_tasks = 20;
d = [ 4, 1, 5, 2, 1, 1, 2, 1, 2, 4, 1, 4, 4, 2, 2, 5, 5, 5, 2, 5 ];
rr = [| 2, 0, 2, 1, 1, 2, 2, 1, 1, 1, 1, 0, 2, 2, 1, 1, 2, 0, 0, 0
      | 1, 0, 0, 1, 0, 0, 0, 0, 1, 1, 0, 0, 0, 1, 1, 1, 0, 0, 0, 0
      | 1, 1, 2, 0, 2, 1, 0, 1, 1, 0, 2, 0, 0, 2, 1, 2, 1, 0, 1, 0 |];
suc = [ { 20 },
       { 13, 16 },
       { 4, 13 },
       { 6, 18 },
       { 8 },
       {  },
       {  },
       {  },
       { 13 },
       { 14 },
       { 15 },
       { 14, 20 },
       { 14 },
       {  },
       { 20 },
       {  },
       {  },
       {  },
       {  },
       {  } ];
